p cnf 722 1767
c ind 708 704 714 707 689 581 709 716 719 712 0
c ind 715 718 678 683 703 717 720 684 694 701 0
c ind 713 691 664 690 583 686 705 706 692 702 0
c ind 669 585 710 666 711 601 665 597 598 618 0
c ind 632 662 619 637 696 685 634 591 681 682 0
c ind 586 590 693 588 633 587 600 695 589 680 0
c ind 679 699 700 677 671 622 606 625 673 675 0
c ind 670 638 648 645 698 674 647 697 607 646 0
c ind 667 649 672 676 641 661 612 609 650 668 0
c ind 652 635 611 687 626 629 630 651 688 614 0
c ind 654 656 659 636 655 658 653 592 623 580 0
c ind 660 631 657 602 605 613 624 627 628 644 0
c ind 596 604 617 615 595 639 593 643 642 599 0
c ind 594 616 610 620 663 603 608 640 582 621 0
c ind 584 1 0
c ret 410 534 535 536 537 538 539 540 541 411 0
c ret 446 542 447 543 544 545 546 448 547 548 0
c ret 549 550 551 412 552 553 554 555 556 449 0
c ret 557 558 450 413 559 560 561 562 563 564 0
c ret 565 566 567 568 569 570 571 572 414 573 0
c ret 574 575 576 577 578 579 415 416 451 452 0
c ret 453 454 417 402 418 419 455 456 457 420 0
c ret 458 421 422 459 423 460 424 461 462 425 0
c ret 403 426 463 464 465 427 466 467 468 469 0
c ret 428 470 429 471 472 430 473 474 431 475 0
c ret 476 477 404 478 479 480 481 482 483 432 0
c ret 484 485 486 433 434 435 436 487 437 488 0
c ret 489 405 438 439 490 491 492 493 494 406 0
c ret 495 496 497 498 499 500 501 502 503 407 0
c ret 504 505 506 507 508 509 510 440 511 441 0
c ret 512 513 514 442 443 515 408 516 517 518 0
c ret 519 444 520 521 445 522 523 524 525 409 0
c ret 526 527 528 529 530 531 532 533 0
2 40 -272 0
2 3 20 -272 0
-2 272 0
-2 -20 -40 0
-2 -3 -40 0
3 4 18 0
3 4 580 0
3 -18 -580 703 0
-3 -4 580 0
-3 -18 -580 -703 0
-3 -4 18 0
4 15 -582 0
4 5 15 0
-4 -15 0
-4 -5 582 0
5 -8 -584 0
5 6 584 0
-5 -6 584 0
-5 8 -584 0
6 -602 -623 0
6 -7 -623 0
-6 623 0
-6 7 602 0
7 -595 -596 -624 0
-7 595 0
-7 596 0
-7 624 0
6 8 9 0
8 -9 652 0
-6 -8 9 0
-8 -9 -652 0
9 10 603 0
-9 -603 0
-9 -10 0
10 11 -653 0
-10 653 0
-10 -11 0
11 12 656 0
11 12 657 0
-11 -12 0
-11 -656 -657 0
12 13 -14 603 653 0
-12 14 0
-12 -13 0
-12 -603 0
-12 -653 0
13 604 613 -660 0
-13 660 0
-13 -613 0
-13 -604 0
14 -654 656 657 0
-14 654 0
-14 -657 0
-14 -656 0
15 16 -582 0
-15 582 0
-15 -16 0
16 -17 -677 0
5 16 17 0
-5 -16 17 0
-16 -17 677 0
10 17 584 603 0
-17 -584 0
-10 -17 0
-17 -603 0
-9 18 -19 0
9 -18 0
-18 19 0
19 582 584 0
-19 -582 0
-19 -584 0
20 21 -38 0
-20 -21 0
-20 38 0
21 -36 -406 0
21 22 406 0
-21 -22 406 0
-21 36 -406 0
22 -33 -408 0
22 23 408 0
-22 -23 408 0
-22 33 -408 0
23 -26 -410 0
23 24 410 0
-23 -24 410 0
-23 26 -410 0
24 -428 -449 0
24 -25 -449 0
-24 449 0
-24 25 428 0
25 -421 -422 -450 0
-25 421 0
-25 422 0
-25 450 0
24 26 27 0
26 -27 478 0
-24 -26 27 0
-26 -27 -478 0
27 28 429 0
-27 -429 0
-27 -28 0
28 29 -479 0
-28 479 0
-28 -29 0
29 30 482 0
29 30 483 0
-29 -30 0
-29 -482 -483 0
30 31 -32 429 479 0
-30 32 0
-30 -31 0
-30 -429 0
-30 -479 0
31 430 439 -486 0
-31 486 0
-31 -439 0
-31 -430 0
32 -480 482 483 0
-32 480 0
-32 -483 0
-32 -482 0
33 -34 -503 0
23 33 34 0
-23 -33 34 0
-33 -34 503 0
28 34 -35 0
-28 -34 0
-34 35 0
35 410 429 0
-35 -410 0
-35 -429 0
22 36 37 0
36 -37 529 0
-22 -36 37 0
-36 -37 -529 0
28 -35 37 408 0
35 -37 0
-28 -37 0
-37 -408 0
38 -39 584 603 0
-38 39 0
-38 -603 0
-38 -584 0
39 580 582 0
-39 -580 0
-39 -582 0
40 -63 -78 0
40 41 -78 580 0
-40 78 0
-40 -41 63 0
-40 63 -580 0
41 42 62 0
4 41 42 -46 0
-41 -42 0
-4 -41 -62 0
-41 46 -62 0
-19 42 704 707 0
19 42 43 704 -707 0
-19 -42 -707 0
19 -42 -43 0
-42 -704 0
19 -42 707 0
43 -44 631 -679 0
43 -44 -679 -680 0
-43 44 0
-43 679 0
-43 -631 680 0
44 -582 -705 0
44 -45 582 0
-44 45 582 0
-44 -582 705 0
45 -584 -681 0
45 584 -682 0
-45 584 682 0
-45 -584 681 0
46 -57 697 706 0
46 -47 -57 706 0
-46 57 0
-46 -706 0
-46 47 -697 0
47 53 688 695 0
47 -48 53 695 0
-47 -53 0
-47 -695 0
-47 48 -688 0
48 -582 688 0
48 -49 582 0
-48 -582 -688 0
-48 49 582 0
49 -584 663 0
49 -50 584 0
-49 -584 -663 0
-49 50 584 0
50 -52 610 0
50 -52 -621 0
50 51 -52 0
-50 52 0
-50 -51 -610 621 0
51 640 642 643 -644 0
-51 644 0
-51 -643 0
-51 -640 0
-51 -642 0
52 642 643 0
52 621 640 0
52 640 643 0
52 621 642 0
-52 -640 -642 0
-52 -621 -643 0
53 54 -663 0
53 54 -687 0
-53 -54 0
-53 663 687 0
54 -55 582 0
-54 -582 0
-54 55 0
55 -56 584 0
-55 -584 0
-55 56 0
56 -621 640 0
56 621 639 0
-56 621 -639 0
-56 -621 -640 0
57 -582 685 0
57 -58 582 0
-57 -582 -685 0
-57 58 582 0
58 -584 661 0
58 -59 584 0
-58 -584 -661 0
-58 59 584 0
59 60 592 0
59 60 614 615 0
-59 -60 0
-59 -592 -615 0
-59 -592 -614 0
60 61 593 -614 -615 0
-60 -593 0
-60 -61 0
-60 615 0
-60 614 0
61 -616 -617 0
-61 616 0
-61 617 0
19 -43 62 -704 0
-62 704 0
-19 -62 0
43 -62 0
63 -64 -65 -71 -73 0
-63 73 0
-63 64 0
-63 71 0
-63 65 0
4 18 64 0
-18 64 703 0
-4 18 -64 0
-18 -64 -703 0
65 66 69 0
-47 65 66 0
-65 -66 0
47 -65 -69 0
66 67 697 0
-66 -697 0
-66 -67 0
67 -68 -688 0
67 688 699 0
-67 688 -699 0
-67 68 -688 0
68 620 621 0
68 608 -621 0
-68 -620 621 0
-68 -608 -621 0
69 70 696 0
69 688 696 0
-69 -696 0
-69 -70 -688 0
70 -582 -663 0
55 70 582 0
70 -582 -687 0
-55 -70 582 0
-70 -582 663 687 0
71 -697 0
-67 -68 71 0
-67 71 -72 0
67 -71 697 0
68 -71 72 697 0
72 663 687 698 0
-72 -663 0
-72 -698 0
-72 -687 0
-19 73 74 77 -580 0
19 -73 0
-73 -77 0
-73 580 0
-73 -74 0
74 75 700 0
-74 -700 0
-74 -75 0
75 -76 582 0
-75 -582 0
-75 76 0
76 584 599 0
-76 -584 0
-76 -599 0
77 -629 630 -631 0
-77 629 0
-77 -630 0
-77 631 0
3 78 -79 -261 0
-21 78 -79 -261 0
-78 261 0
-78 79 0
-3 21 -78 0
-15 79 -81 0
79 80 -81 582 0
-79 81 0
15 -79 -582 0
15 -79 -80 0
5 80 -584 0
5 80 -603 0
-5 -80 0
-80 584 603 0
81 82 -99 -133 0
81 -94 -99 -133 0
-81 133 0
-81 99 0
-81 -82 94 0
82 89 560 562 0
82 -83 89 560 0
-82 -560 0
-82 -89 0
-82 83 -562 0
83 -406 537 0
83 -84 406 0
-83 -406 -537 0
-83 84 406 0
84 -408 514 0
84 -85 408 0
-84 -408 -514 0
-84 85 408 0
85 -410 489 0
85 -86 410 0
-85 -410 -489 0
-85 86 410 0
86 -88 436 0
86 -88 -447 0
86 87 -88 0
-86 88 0
-86 -87 -436 447 0
87 466 468 469 -470 0
-87 470 0
-87 -469 0
-87 -466 0
-87 -468 0
88 468 469 0
88 447 466 0
88 466 469 0
88 447 468 0
-88 -466 -468 0
-88 -447 -469 0
89 90 -537 0
89 90 -561 0
-89 -90 0
-89 537 561 0
90 91 406 0
90 -406 514 536 0
-90 -406 -514 0
-90 -91 406 0
-90 -406 -536 0
91 -408 -489 0
91 92 408 0
91 -408 -513 0
-91 -92 408 0
-91 -408 489 513 0
92 -93 410 0
-92 -410 0
-92 93 0
93 -447 466 0
93 447 465 0
-93 447 -465 0
-93 -447 -466 0
-47 94 97 0
94 -95 97 -580 0
-94 -97 0
47 -94 95 0
47 -94 580 0
-48 70 95 0
95 -96 711 0
70 95 711 0
-48 95 -96 0
48 -95 -711 0
-70 -95 96 0
96 688 710 0
-96 -688 0
-96 -710 0
97 -98 -580 0
-95 97 -580 -709 0
-97 580 0
-97 98 709 0
95 -97 98 0
96 98 -711 0
72 96 98 0
-96 -98 0
-72 -98 711 0
99 100 -106 -107 -132 0
99 -100 106 -107 -132 0
-99 132 0
-99 100 106 0
-99 107 0
-99 -100 -106 0
100 -406 534 0
100 -101 406 0
-100 -406 -534 0
-100 101 406 0
101 -408 511 0
101 -102 408 0
-101 -408 -511 0
-101 102 408 0
102 -410 487 0
102 -103 410 0
-102 -410 -487 0
-102 103 410 0
103 104 418 0
103 104 440 441 0
-103 -104 0
-103 -418 -441 0
-103 -418 -440 0
104 105 419 -440 -441 0
-104 -419 0
-104 -105 0
-104 441 0
-104 440 0
105 -442 -443 0
-105 442 0
-105 443 0
106 -580 -708 0
57 106 580 0
-106 -580 708 0
-57 -106 580 0
107 108 -110 -115 0
107 109 -110 -115 0
-107 115 0
-107 110 0
-107 -108 -109 0
-57 108 -594 0
-108 594 0
57 -108 0
-39 109 584 0
-109 -584 0
39 -109 0
110 111 113 0
110 111 -114 0
-110 -111 0
-110 -113 114 0
111 112 672 0
-111 -672 0
-111 -112 0
-68 112 -663 0
112 663 673 0
-112 663 -673 0
68 -112 -663 0
-55 113 671 0
113 663 671 0
-113 -671 0
55 -113 -663 0
-55 114 663 670 0
-49 -55 114 670 0
55 -114 0
-114 -670 0
49 -114 -663 0
115 -116 128 -584 0
115 -116 128 131 0
-115 116 0
-115 -128 0
-115 -131 584 0
116 -120 610 0
116 117 118 -120 0
-116 120 0
-116 -118 -610 0
-116 -117 -610 0
-56 117 645 0
-117 -645 0
56 -117 0
-50 -56 118 638 0
-50 118 -119 638 0
-118 -638 0
50 -118 0
56 -118 119 0
119 641 642 0
119 -621 642 0
119 609 621 -642 0
-119 -609 -642 0
-119 -621 -642 0
-119 621 -641 642 0
120 121 -124 -126 -127 0
120 -121 124 -126 -127 0
120 121 -124 126 127 0
120 -121 124 126 127 0
-120 126 -127 0
-120 -126 127 0
-120 -121 -124 0
-120 121 124 0
121 122 457 0
121 -122 574 0
-121 -122 -574 0
-121 122 -457 0
122 -123 406 0
-122 -406 0
-122 123 0
123 408 410 0
-123 -408 0
-123 -410 0
124 -125 -717 0
124 125 -631 0
-124 125 631 0
-124 -125 717 0
-19 125 580 0
-125 -580 0
19 -125 0
-109 126 718 0
7 -109 126 606 0
109 -126 0
-7 -126 -718 0
-126 -606 -718 0
-122 127 575 0
25 -122 127 432 0
122 -127 0
-25 -127 -575 0
-127 -432 -575 0
128 129 -130 0
128 -129 130 0
-128 -129 -130 0
-128 129 130 0
-29 129 479 0
-29 129 429 0
29 -129 0
-129 -429 -479 0
-11 130 653 0
-11 130 603 0
11 -130 0
-130 -603 -653 0
-117 118 131 0
117 -131 0
-118 -131 0
-65 80 132 0
65 -132 0
-80 -132 0
83 133 -134 141 -142 0
-83 133 -134 -141 -142 0
-133 142 0
-83 -133 141 0
-133 134 0
83 -133 -141 0
134 135 -140 0
47 134 135 0
-134 -135 0
-47 -134 140 0
-131 135 -584 0
135 136 -584 0
8 135 -584 0
-135 584 0
-8 131 -135 -136 0
136 -137 139 -646 0
-68 136 -137 139 0
-136 137 0
-136 -139 0
68 -136 646 0
77 137 138 0
-77 -137 0
-137 -138 0
-59 138 -594 0
-138 594 0
59 -138 0
139 -599 649 0
-139 599 0
-139 -649 0
-113 140 582 0
-140 -582 0
113 -140 0
141 -580 711 0
-48 141 580 0
-141 -580 -711 0
48 -141 580 0
142 -143 258 -259 -260 0
142 -143 258 259 260 0
-142 -258 0
-142 259 -260 0
-142 143 0
-142 -259 260 0
143 144 145 -147 -148 0
143 -144 -145 -147 -148 0
-143 148 0
-143 -144 145 0
-143 147 0
-143 144 -145 0
-109 144 -653 0
109 130 144 0
-109 -144 653 0
109 -130 -144 0
145 -146 -479 0
129 145 146 0
-129 -145 146 0
-145 -146 479 0
146 406 408 410 0
-146 -406 0
-146 -410 0
-146 -408 0
-114 147 645 0
114 140 147 0
-114 -147 -645 0
114 -140 -147 0
90 148 -149 242 -243 0
-90 148 -149 -242 -243 0
-148 243 0
-90 -148 242 0
-148 149 0
90 -148 -242 0
131 149 -150 -170 -175 0
-131 -149 0
-149 175 0
-149 170 0
-149 150 0
111 138 150 -151 -160 0
-111 -150 0
-150 160 0
-150 151 0
-138 -150 0
151 -152 157 -697 0
-112 151 -152 157 0
-151 152 0
-151 -157 0
112 -151 697 0
152 153 154 -155 156 0
152 -153 -154 155 -156 0
152 153 154 155 -156 0
152 -153 -154 -155 156 0
-152 153 -154 0
-152 -153 154 0
-152 155 156 0
-152 -155 -156 0
-109 153 -715 0
-153 715 0
109 -153 0
-146 154 -573 0
-154 573 0
146 -154 0
155 719 720 0
155 657 -720 0
155 -657 720 0
-155 -657 -720 0
-155 657 -719 720 0
156 -483 -579 0
156 483 -578 579 0
-156 578 579 0
-156 483 -579 0
-156 -483 579 0
67 157 -158 0
-67 -157 0
-157 158 0
158 -159 -562 0
158 562 566 0
-158 562 -566 0
-158 159 -562 0
159 446 447 0
159 434 -447 0
-159 -446 447 0
-159 -434 -447 0
160 -161 -166 -691 0
-75 160 -161 -166 0
-160 166 0
-160 161 0
75 -160 691 0
161 164 570 0
161 -162 -165 0
161 -162 570 0
161 164 -165 0
-161 165 -570 0
-161 162 -164 0
162 -163 406 408 0
-162 163 0
-162 -408 0
-162 -406 0
163 410 425 0
-163 -410 0
-163 -425 0
-39 -76 164 0
39 -164 0
76 -164 0
165 580 -706 0
165 -580 -713 0
-165 -580 713 0
-165 580 706 0
68 166 167 -168 0
-159 166 167 -168 0
-166 168 0
-166 -167 0
-68 159 -166 0
76 167 666 0
167 -649 666 0
-167 -666 0
-76 -167 649 0
-75 162 168 0
-164 168 169 0
162 168 169 0
-75 -164 168 0
-162 164 -168 0
75 -168 -169 0
169 580 700 0
-169 -580 0
-169 -700 0
6 170 -171 174 0
170 -171 174 603 0
-170 171 0
-170 -174 0
-6 -170 -603 0
67 171 -172 -173 0
-158 171 172 173 0
67 171 172 173 0
-158 171 -172 -173 0
-171 172 -173 0
-171 -172 173 0
-67 158 -171 0
-146 172 -420 0
-172 420 0
146 -172 0
-109 173 -594 0
-173 594 0
109 -173 0
68 174 646 -647 0
68 119 174 646 0
-174 -646 0
-68 -174 0
-119 -174 647 0
175 -176 -196 -214 -222 0
-175 222 0
-175 176 0
-175 214 0
-175 196 0
-71 176 -177 -186 -191 0
-176 191 0
71 -176 0
-176 186 0
-176 177 0
177 -178 182 599 0
177 -178 182 -184 0
-177 178 0
-177 -182 0
-177 184 -599 0
178 179 180 0
-146 178 180 455 0
-178 -180 0
-178 -179 -455 0
146 -178 -179 0
-39 179 584 629 0
39 -179 0
-179 -629 0
-179 -584 0
180 -181 -587 0
180 -587 589 -591 0
-180 587 0
-180 181 -589 0
-180 181 591 0
181 -586 588 -589 590 0
-181 589 0
-181 -590 0
-181 586 0
-181 -588 0
182 -183 -584 -631 0
182 -183 -629 -631 0
-182 183 0
-182 631 0
-182 584 629 0
-125 183 630 0
-183 -630 0
125 -183 0
184 -185 -600 0
184 -185 601 -619 0
-184 185 0
-184 600 -601 0
-184 600 619 0
185 -598 -618 0
185 597 -618 0
-185 618 0
-185 -597 598 0
186 187 188 -189 -190 0
186 -187 -188 -189 -190 0
186 187 188 189 190 0
186 -187 -188 189 190 0
-186 187 -188 0
-186 -187 188 0
-186 189 -190 0
-186 -189 190 0
-109 187 616 0
-187 -616 0
109 -187 0
-122 188 442 0
-188 -442 0
122 -188 0
-109 189 -655 0
-189 655 0
109 -189 0
-146 190 -481 0
-190 481 0
146 -190 0
183 191 192 194 195 0
-183 191 192 -194 195 0
-191 -192 0
-183 -191 194 0
-191 -195 0
183 -191 -194 0
68 -159 192 0
68 192 193 0
-68 -192 0
159 -192 -193 0
193 -607 -646 -672 0
193 622 -646 -672 0
-193 672 0
-193 646 0
-193 607 -622 0
-122 194 456 0
-194 -456 0
122 -194 0
-146 179 195 455 0
-195 -455 0
146 -195 0
-179 -195 0
196 -197 -204 -207 -209 0
-196 209 0
-196 197 0
-196 207 0
-196 204 0
74 197 -198 -203 0
72 74 197 -198 0
-197 198 0
-74 -197 0
-72 -197 203 0
198 -199 -200 -201 -202 0
-198 202 0
-198 199 0
-198 201 0
-198 200 0
199 505 612 0
199 -646 -679 0
199 612 -679 0
199 505 -646 0
-199 -612 646 0
-199 -505 679 0
200 486 577 0
200 -660 -711 0
200 486 -711 0
200 577 -660 0
-200 -486 660 0
-200 -577 711 0
201 438 583 0
201 -612 665 0
201 583 -612 0
201 438 665 0
-201 -438 612 0
-201 -583 -665 0
202 -506 -633 0
202 -585 680 0
202 -506 -585 0
202 -633 680 0
-202 506 -680 0
-202 585 633 0
203 537 561 565 0
-203 -537 0
-203 -565 0
-203 -561 0
204 -205 206 -631 0
204 -205 206 457 0
-204 205 0
-204 -206 0
-204 -457 631 0
205 -486 -680 0
205 506 660 0
205 660 -680 0
205 -486 506 0
-205 -506 680 0
-205 486 -660 0
206 438 -612 0
-206 -438 0
-206 612 0
139 207 -208 -604 0
139 207 -208 -613 0
-207 208 0
-139 -207 0
-207 604 613 0
208 -612 -632 633 -637 0
-208 637 0
-208 612 0
-208 632 0
-208 -633 0
209 -210 -211 -212 -213 0
-209 213 0
-209 210 0
-209 212 0
-209 211 0
210 -457 611 0
210 -610 631 0
210 -457 -610 0
210 611 631 0
-210 457 -631 0
-210 610 -611 0
211 -583 633 0
211 585 -665 0
211 633 -665 0
211 -583 585 0
-211 -585 -633 0
-211 583 665 0
212 -505 599 0
212 -625 679 0
212 599 679 0
212 -505 -625 0
-212 -599 625 0
-212 505 -679 0
213 -577 612 0
213 -607 711 0
213 -577 -607 0
213 612 711 0
-213 577 -711 0
-213 607 -612 0
38 214 -215 220 -221 0
-38 214 -215 -220 -221 0
-214 221 0
-38 -214 220 0
-214 215 0
38 -214 -220 0
215 216 218 -219 0
215 216 -219 -582 0
-215 219 0
-215 -216 0
-215 -218 582 0
216 -217 -603 -604 605 0
-216 217 0
-216 603 0
-216 604 0
-216 -605 0
217 -595 -602 0
-217 595 0
-217 602 0
76 218 674 0
-218 -674 0
-76 -218 0
122 219 -570 0
-125 165 219 0
122 165 219 0
-125 219 -570 0
-122 125 -219 0
-165 -219 570 0
-35 220 406 408 0
35 -220 0
-220 -408 0
-220 -406 0
-72 125 221 0
-122 203 221 0
-72 -122 221 0
125 203 221 0
72 -203 -221 0
122 -125 -221 0
112 222 223 -224 -227 0
-222 -223 0
-222 227 0
-222 224 0
-112 -222 0
68 72 223 697 0
-223 -697 0
-72 -223 0
-68 -223 0
67 224 -225 -581 690 0
67 224 -225 581 -690 0
-224 225 0
-224 581 690 0
-67 -224 0
-224 -581 -690 0
225 226 -691 0
225 226 582 674 0
-225 -226 0
-225 -674 691 0
-225 -582 691 0
226 592 -593 -594 0
-226 594 0
-226 593 0
-226 -592 0
227 -228 -229 -231 -234 0
-227 234 0
-227 228 0
-227 231 0
-227 229 0
218 228 603 0
218 228 -595 0
218 228 -602 0
-218 -228 0
-228 595 602 -603 0
-169 229 -606 0
229 230 -567 0
229 -567 -606 0
-169 229 230 0
-229 -230 606 0
169 -229 567 0
230 595 -603 0
-230 -595 0
-230 603 0
68 77 231 -232 -233 0
-68 -231 0
-231 233 0
-231 232 0
-77 -231 0
232 690 -694 -712 0
-232 712 0
-232 694 0
-232 -690 0
233 -664 665 -669 -689 0
-233 689 0
-233 664 0
-233 669 0
-233 -665 0
96 234 -235 237 -238 0
-96 234 -235 -237 -238 0
-234 238 0
-96 -234 237 0
-234 235 0
96 -234 -237 0
235 236 -580 0
235 236 -700 0
235 236 567 0
-235 -236 0
-235 -567 580 700 0
236 595 604 0
236 -595 596 0
-236 -595 -596 0
-236 595 -604 0
237 562 576 0
-237 -562 0
-237 -576 0
139 238 239 -240 0
238 239 -240 -584 0
-238 240 0
-238 -239 0
-139 -238 584 0
239 607 -608 -609 0
-239 609 0
-239 608 0
-239 -607 0
240 241 -564 -697 0
240 241 564 697 0
-240 -241 0
-240 -564 697 0
-240 564 -697 0
241 -599 634 0
241 -625 634 0
-241 -634 0
-241 599 625 0
-96 242 -580 0
70 242 580 0
-70 -242 580 0
96 -242 -580 0
243 244 245 254 257 0
243 244 245 -254 -257 0
-243 -245 0
-243 254 -257 0
-243 -244 0
-243 -254 257 0
137 244 584 0
-244 -584 0
-137 -244 0
245 246 -250 0
245 -246 250 0
-245 -246 -250 0
-245 246 250 0
-187 246 -248 615 0
-187 246 -247 -248 0
-246 248 0
187 -246 0
-246 247 -615 0
247 617 627 0
247 -593 617 0
-247 -617 0
-247 593 -627 0
248 249 617 0
248 -249 593 0
248 249 627 0
-248 -249 -593 0
-248 249 -617 -627 0
249 -594 -628 0
-249 594 0
-249 628 0
-188 250 -252 441 0
-188 250 -251 -252 0
-250 252 0
188 -250 0
-250 251 -441 0
251 443 453 0
251 -419 443 0
-251 -443 0
-251 419 -453 0
252 253 443 0
252 -253 419 0
252 253 453 0
-252 -253 -419 0
-252 253 -443 -453 0
253 -420 -454 0
-253 420 0
-253 454 0
254 -406 -552 0
254 -255 406 0
-254 255 406 0
-254 -406 552 0
255 -408 -531 0
255 -256 408 0
-255 256 408 0
-255 -408 531 0
256 -410 -507 0
256 410 -508 0
-256 410 508 0
-256 -410 507 0
257 -580 -716 0
-44 257 580 0
44 -257 580 0
-257 -580 716 0
-19 -77 258 0
-19 -108 258 0
19 -258 0
77 108 -258 0
-90 259 563 0
259 562 563 0
-259 -563 0
90 -259 -562 0
-69 260 580 0
-260 -580 0
69 -260 0
261 -268 271 0
261 262 271 582 0
-261 -271 0
-261 -262 268 0
-261 268 -582 0
262 263 267 0
-5 262 263 -266 0
-262 -263 0
5 -262 -267 0
-262 266 -267 0
263 584 678 684 0
263 264 -584 678 -684 0
-263 -584 684 0
-263 -264 -684 0
-263 -678 0
-263 584 -684 0
264 -265 -584 -681 0
264 -265 584 -682 0
-264 265 0
-264 -584 681 0
-264 584 682 0
265 631 -679 0
265 -679 -680 0
-265 679 0
-265 -631 680 0
-58 -114 266 683 0
-58 266 672 683 0
58 -266 0
-266 -683 0
114 -266 -672 0
-264 267 -584 -678 0
-267 584 0
-267 678 0
264 -267 0
16 -110 244 268 -269 0
110 -268 0
-244 -268 0
-16 -268 0
-268 269 0
-68 269 -270 0
269 -270 -672 0
-269 270 0
68 -269 672 0
270 -582 584 599 0
270 -582 584 -674 0
-270 582 0
-270 -584 0
-270 -599 674 0
82 -94 271 0
82 -260 271 0
-82 -271 0
94 260 -271 0
272 273 -281 0
272 -275 -279 -281 0
-272 281 0
-272 -273 275 0
-272 -273 279 0
-254 273 -274 0
254 -273 0
-273 274 0
274 457 -505 0
274 -505 -506 0
-274 505 0
-274 -457 506 0
275 276 -404 0
21 275 -404 0
-275 404 0
-21 -275 -276 0
-100 276 -277 553 0
-100 276 546 553 0
100 -276 0
-276 -553 0
-276 277 -546 0
277 278 537 544 0
-83 277 278 544 0
-277 -278 0
-277 -544 0
83 -277 -537 0
90 278 -514 0
90 278 -536 0
-90 -278 0
-278 514 536 0
279 280 -402 0
21 279 -402 0
-279 402 0
-21 -279 -280 0
-100 280 564 570 0
-82 -100 280 570 0
100 -280 0
-280 -570 0
82 -280 -564 0
281 -290 -302 0
281 282 -302 406 0
-281 302 0
-281 -282 290 0
-281 290 -406 0
282 283 289 0
22 282 283 -285 0
-282 -283 0
-22 -282 -289 0
-282 285 -289 0
-123 283 530 533 0
123 283 284 530 -533 0
-123 -283 -533 0
123 -283 -284 0
-283 -530 0
123 -283 533 0
-255 -274 284 0
255 -284 0
274 -284 0
-101 285 -286 532 0
-101 285 523 532 0
101 -285 0
-285 -532 0
-285 286 -523 0
286 287 514 521 0
-84 286 287 521 0
-286 -287 0
-286 -521 0
84 -286 -514 0
287 288 -489 0
287 288 -513 0
-287 -288 0
-287 489 513 0
-92 288 408 0
-288 -408 0
92 -288 0
123 -284 289 -530 0
-289 530 0
-123 -289 0
284 -289 0
-36 290 -291 299 -301 0
-290 301 0
36 -290 0
-290 291 0
-290 -299 0
-286 291 -293 -295 0
291 292 -293 -295 0
-291 295 0
-291 293 0
286 -291 -292 0
91 292 522 0
292 514 522 0
-292 -522 0
-91 -292 -514 0
123 293 0
101 293 294 0
293 294 420 0
-123 -293 -294 0
-101 -123 -293 -420 0
294 -455 456 -457 0
-294 455 0
-294 -456 0
-294 457 0
295 296 297 0
-295 -296 0
-295 -297 0
163 296 526 0
296 -408 526 0
-296 -526 0
-163 -296 408 0
297 298 523 0
-297 -523 0
-297 -298 0
-159 298 -514 0
298 514 525 0
-298 514 -525 0
159 -298 -514 0
159 299 523 -524 0
159 299 300 523 0
-299 -523 0
-159 -299 0
-299 -300 524 0
300 489 513 0
-300 -489 0
-300 -513 0
-123 294 296 301 -406 0
123 -301 0
-296 -301 0
-301 406 0
-294 -301 0
-21 302 303 -319 0
-220 302 303 -319 0
-302 319 0
-302 -303 0
21 220 -302 0
303 310 -408 0
303 304 306 310 0
-303 -310 0
-303 -304 408 0
-303 -306 408 0
304 410 504 510 0
304 305 -410 504 -510 0
-304 -410 510 0
-304 -305 -510 0
-304 -504 0
-304 410 -510 0
-274 305 -410 -507 0
-274 305 410 -508 0
274 -305 0
-305 -410 507 0
-305 410 508 0
-305 306 307 -410 -504 0
305 -306 0
-306 -307 0
-306 410 0
-306 504 0
-23 307 -309 498 0
-23 307 -308 -309 0
-307 309 0
23 -307 0
-307 308 -498 0
-92 308 489 496 0
-85 -92 308 496 0
92 -308 0
-308 -496 0
85 -308 -489 0
-102 309 509 0
-309 -509 0
102 -309 0
33 310 -311 314 -317 0
-310 311 0
-310 -314 0
-33 -310 0
-310 317 0
-308 311 -312 0
311 313 -498 0
-308 311 -498 0
311 -312 313 0
308 -311 -313 0
-311 312 498 0
-159 312 -489 0
312 489 499 0
-312 489 -499 0
159 -312 -489 0
-92 313 497 0
313 489 497 0
-313 -497 0
92 -313 -489 0
314 315 410 0
-314 -410 0
-314 -315 0
294 315 316 0
-294 -315 0
-315 -316 0
-103 316 -420 0
-316 420 0
103 -316 0
-159 317 -318 0
317 -318 -498 0
-317 318 0
159 -317 498 0
318 -408 410 425 0
318 -408 410 -500 0
-318 408 0
-318 -410 0
-318 -425 500 0
22 319 -321 -325 0
319 -320 -321 -325 0
-319 325 0
-319 321 0
-22 -319 320 0
-35 320 408 0
-320 -408 0
35 -320 0
-82 321 322 -324 0
82 259 321 322 0
-321 -322 0
-82 -321 324 0
82 -259 -321 0
-277 322 323 0
277 -322 0
-322 -323 0
-292 323 406 0
-323 -406 0
292 -323 0
-90 324 545 0
324 537 545 0
-324 -545 0
90 -324 -537 0
-277 325 -326 -329 0
324 325 -326 -329 0
-325 329 0
-325 326 0
277 -324 -325 0
-23 -291 326 -327 0
-35 -291 326 -327 0
-326 327 0
291 -326 0
23 35 -326 0
-293 -311 327 -328 0
172 -293 -311 327 0
311 -327 0
293 -327 0
-172 -327 328 0
101 328 406 0
-328 -406 0
-101 -328 0
-286 329 -330 399 0
323 329 -330 399 0
-329 330 0
-329 -399 0
286 -323 -329 0
286 330 -331 0
-313 330 -331 408 0
-330 331 0
-286 313 -330 0
-286 -330 -408 0
331 -332 -396 471 0
308 331 -332 -396 0
-331 396 0
-331 332 0
-308 -331 -471 0
332 -333 -360 -368 -392 0
-332 392 0
-332 333 0
-332 368 0
-332 360 0
312 333 -334 340 -341 0
-333 334 0
-333 -340 0
-312 -333 0
-333 341 0
146 294 334 335 -336 0
-334 336 0
-334 -335 0
-146 -334 0
-294 -334 0
335 -425 475 0
335 -425 451 0
-335 425 0
-335 -451 -475 0
336 337 -338 -405 539 0
336 337 -338 405 -539 0
-336 338 0
-336 405 539 0
-336 -337 0
-336 -405 -539 0
337 421 -429 432 0
337 421 428 -429 0
-337 -421 0
-337 429 0
-337 -428 -432 0
338 339 419 0
338 339 -418 0
338 339 420 0
-338 -339 0
-338 418 -419 -420 0
339 433 -434 -435 0
-339 435 0
-339 434 0
-339 -433 0
-159 340 -537 0
340 537 548 0
-340 537 -548 0
159 -340 -537 0
341 -342 -347 -349 -352 0
-341 352 0
-341 342 0
-341 349 0
-341 347 0
342 -343 -344 -345 -346 0
-342 346 0
-342 343 0
-342 345 0
-342 344 0
343 -495 -515 516 -520 0
-343 520 0
-343 495 0
-343 515 0
-343 -516 0
344 459 -463 -490 491 0
-344 -459 0
-344 -491 0
-344 490 0
-344 463 0
345 -554 555 -559 -571 0
-345 571 0
-345 554 0
-345 559 0
-345 -555 0
346 -523 -538 539 -543 0
-346 543 0
-346 523 0
-346 538 0
-346 -539 0
347 -348 438 0
347 -348 -433 -472 0
-347 348 0
-347 -438 472 0
-347 433 -438 0
348 -403 437 0
348 -436 -555 0
348 -403 -436 0
348 437 -555 0
-348 436 -437 0
-348 403 555 0
349 350 -351 -438 -458 0
-349 351 0
-349 438 0
-349 458 0
-349 -350 0
350 430 439 0
-350 -430 0
-350 -439 0
351 459 555 0
351 403 411 0
351 411 555 0
351 403 459 0
-351 -411 -459 0
-351 -403 -555 0
159 352 353 -354 -358 0
-159 -352 0
-352 358 0
-352 354 0
-352 -353 0
163 353 500 0
-353 -500 0
-163 -353 0
354 355 -356 -409 491 0
354 355 -356 409 -491 0
-354 356 0
-354 409 491 0
-354 -355 0
-354 -409 -491 0
355 -410 492 0
355 -475 492 0
-355 -492 0
-355 410 475 0
356 357 425 0
356 357 -410 0
356 357 -475 0
-356 -357 0
-356 410 -425 475 0
357 -408 517 0
357 -500 517 0
-357 -517 0
-357 408 500 0
-163 358 -540 0
358 -359 -492 0
358 -492 -540 0
-163 358 -359 0
-358 359 540 0
163 -358 492 0
359 406 526 0
-359 -406 0
-359 -526 0
158 298 360 -361 -367 0
-158 -360 0
-360 367 0
-360 361 0
-298 -360 0
361 363 365 -406 0
361 362 363 365 0
-361 -365 0
-361 -363 0
-361 -362 406 0
-123 -294 362 0
123 -362 0
294 -362 0
363 -364 -413 0
363 -413 415 -417 0
-363 413 0
-363 364 -415 0
-363 364 417 0
364 -412 414 -415 416 0
-364 415 0
-364 -416 0
-364 412 0
-364 -414 0
159 365 546 -547 0
159 365 366 546 0
-365 -546 0
-159 -365 0
-365 -366 547 0
366 514 536 0
-366 -514 0
-366 -536 0
299 367 -564 0
-159 299 367 0
-203 299 367 0
-299 -367 0
159 203 -367 564 0
368 -369 -373 -379 -386 0
-368 386 0
-368 369 0
-368 379 0
-368 373 0
24 316 369 -370 0
316 369 -370 429 0
-369 370 0
-316 -369 0
-24 -369 -429 0
370 371 -546 0
-298 370 371 0
-370 -371 0
298 -370 546 0
159 371 472 -473 0
159 371 372 472 0
-371 -472 0
-159 -371 0
-371 -372 473 0
372 467 468 0
372 -447 468 0
372 435 447 -468 0
-372 -435 -468 0
-372 -447 -468 0
-372 447 -467 468 0
373 -374 -375 0
373 -375 -517 -526 0
-373 375 0
-373 374 517 0
-373 374 526 0
-163 374 408 0
-374 -408 0
163 -374 0
375 377 428 0
375 376 377 0
375 377 421 0
-375 -377 0
-375 -376 -421 -428 0
376 -429 -430 431 0
-376 429 0
-376 430 0
-376 -431 0
377 -378 -425 0
377 -425 426 -427 0
-377 425 0
-377 378 -426 0
-377 378 427 0
378 -423 424 0
-378 423 0
-378 -424 0
379 -380 385 -408 0
353 379 -380 385 0
-379 380 0
-379 -385 0
-353 -379 408 0
380 -381 -382 451 0
380 -381 -382 -460 0
-380 382 0
-380 381 0
-380 -451 460 0
381 -422 549 0
381 421 -556 0
381 421 549 0
381 -422 -556 0
-381 -421 422 0
-381 -549 556 0
382 383 384 407 -516 0
382 383 384 -407 516 0
-382 -383 0
-382 407 516 0
-382 -384 0
-382 -407 -516 0
383 421 430 0
-383 -421 0
-383 -430 0
384 411 459 0
-384 -411 0
-384 -459 0
385 -425 444 0
385 -425 426 445 0
-385 425 0
-385 -426 -444 0
-385 -444 -445 0
-340 386 -387 0
386 -387 -546 0
-386 387 0
340 -386 546 0
-162 387 390 0
387 -388 -389 390 0
-387 -390 0
162 -387 389 0
162 -387 388 0
388 -406 -540 -556 0
388 -526 -540 -556 0
-388 556 0
-388 540 0
-388 406 526 0
389 -549 -567 0
-389 549 0
-389 567 0
159 390 -391 0
159 390 472 0
159 390 498 0
-159 -390 0
-390 391 -472 -498 0
391 433 -448 0
-391 -433 0
-391 448 0
392 393 436 0
392 393 394 395 0
-392 -393 0
-392 -395 -436 0
-392 -394 -436 0
273 393 -402 0
273 393 -404 0
-273 -393 0
-393 402 404 0
-93 394 471 0
-394 -471 0
93 -394 0
-86 -93 395 464 0
-86 -372 395 464 0
-395 -464 0
86 -395 0
93 372 -395 0
314 396 397 -398 0
-396 398 0
-396 -397 0
-314 -396 0
-394 395 397 0
394 -397 0
-395 -397 0
297 398 -564 0
-158 297 -340 398 0
-297 -398 0
158 -398 564 0
340 -398 564 0
-397 399 -410 0
399 400 -410 0
26 399 -410 0
-399 410 0
-26 397 -399 -400 0
-315 400 401 -475 0
-315 400 401 425 0
315 -400 0
-400 -401 0
-400 -425 475 0
159 401 472 0
-401 -472 0
-159 -401 0
1 2 0
-1 -2 0
721 0

